CMPL model generation - running

CMPL version: 1.11.0
Authors: Thomas Schleiff, Mike Steglich
Distributed under the GPLv3 

create model instance ...
write model instance ...
CMPL model generation - finished

Solver - running


Welcome to IBM(R) ILOG(R) CPLEX(R) Interactive Optimizer 12.7.1.0
  with Simplex, Mixed Integer & Barrier Optimizers
5725-A06 5725-A29 5724-Y48 5724-Y49 5724-Y54 5724-Y55 5655-Y21
Copyright IBM Corp. 1988, 2017.  All Rights Reserved.

Type 'help' for a list of available commands.
Type 'help' followed by a command name for more
information on commands.

CPLEX> Specified objective sense: MINIMIZE
Selected objective  name:  line[1]
Selected RHS        name:  RHS
Selected bound      name:  BOUND
Problem '/tmp/cmpl.T23868.mps' read.
Read time = 0.06 sec. (8.17 ticks)
CPLEX> CPXPARAM_Read_APIEncoding                        "UTF-8"
Tried aggregator 3 times.
MIP Presolve eliminated 19262 rows and 30747 columns.
MIP Presolve modified 340 coefficients.
Aggregator did 613 substitutions.
Reduced MIP has 2480 rows, 3233 columns, and 9443 nonzeros.
Reduced MIP has 3065 binaries, 0 generals, 0 SOSs, and 0 indicators.
Presolve time = 0.06 sec. (41.78 ticks)
Found incumbent of value 489.871232 after 0.09 sec. (60.53 ticks)
Probing fixed 6 vars, tightened 0 bounds.
Probing time = 0.01 sec. (4.18 ticks)
Tried aggregator 1 time.
MIP Presolve eliminated 0 rows and 6 columns.
MIP Presolve modified 29 coefficients.
Reduced MIP has 2480 rows, 3227 columns, and 9431 nonzeros.
Reduced MIP has 3227 binaries, 0 generals, 0 SOSs, and 0 indicators.
Presolve time = 0.02 sec. (8.05 ticks)
Probing time = 0.01 sec. (2.67 ticks)
Clique table members: 5881.
MIP emphasis: balance optimality and feasibility.
MIP search method: dynamic search.
Parallel mode: none, using 1 thread.
Root relaxation solution time = 0.00 sec. (4.45 ticks)

        Nodes                                         Cuts/
   Node  Left     Objective  IInf  Best Integer    Best Bound    ItCnt     Gap

*     0+    0                          489.8712      -40.5369           108.28%
      0     0      101.2504    18      489.8712      101.2504      109   79.33%
*     0+    0                          129.0660      101.2504            21.55%
*     0+    0                          101.7647      101.2504             0.51%
*     0     0      integral     0      101.7314      Cuts: 13      113    0.00%
      0     0        cutoff            101.7314      101.7314      113    0.00%
Elapsed time = 0.16 sec. (99.20 ticks, tree = 0.01 MB, solutions = 4)

GUB cover cuts applied:  2
Clique cuts applied:  4
Cover cuts applied:  4
Gomory fractional cuts applied:  3

Root node processing (before b&c):
  Real time             =    0.16 sec. (100.91 ticks)
Sequential b&c:
  Real time             =    0.00 sec. (0.00 ticks)
                          ------------
Total (root+branch&cut) =    0.16 sec. (100.91 ticks)

Solution pool: 4 solutions saved.

MIP - Integer optimal solution:  Objective =  1.0173145000e+02
Solution time =    0.16 sec.  Iterations = 113  Nodes = 0
Deterministic time = 101.01 ticks  (615.80 ticks/sec)

CPLEX> Incumbent solution written to file '/tmp/cmpl.T23868.gsol'.
CPLEX> 
CMPL: Time used for model generation: 0 seconds
CMPL: Time used for solving the model: 1 seconds


Solution written to ASCII file: results/output_generated_conf_0.3/2017-08-07-4/fair-nonlinear.sol

Solver - finished
